100
75 75
1 52 188
2 52 215
3 51 635
4 51 595
5 50 499
6 50 626
7 49 483
8 49 475
9 48 726
10 47 184
11 47 481
12 47 385
13 47 623
14 47 132
15 46 61
16 46 596
17 46 427
18 45 745
19 45 837
20 45 744
21 45 868
22 45 421
23 44 551
24 44 977
25 44 406
26 43 730
27 43 854
28 43 65
29 42 368
30 42 992
31 42 690
32 41 899
33 40 712
34 40 77
35 39 804
36 39 748
37 39 232
38 39 242
39 38 999
40 38 73
41 38 811
42 37 872
43 37 268
44 36 953
45 36 733
46 36 862
47 36 674
48 35 563
49 35 368
50 35 538
51 35 765
52 34 963
53 34 654
54 33 16
55 33 315
56 33 102
57 33 794
58 33 232
59 32 60
60 32 905
61 31 324
62 31 317
63 31 923
64 30 406
65 29 683
66 29 444
67 29 338
68 28 222
69 27 80
70 27 868
71 27 701
72 27 642
73 25 60
74 25 191
75 25 485
76 24 493
77 23 905
78 23 570
79 22 310
80 22 677
81 22 306
82 21 634
83 21 488
84 21 131
85 20 492
86 20 790
87 19 257
88 19 597
89 19 948
90 19 614
91 19 750
92 18 668
93 18 358
94 18 489
95 18 933
96 18 486
97 18 554
98 16 602
99 16 969
100 15 601
